624355
103,187,12,146,88,228,109,186,171,150,90,170,142,4,21,217,153,129,33,224,38,203,6,223,44,64,5,156,145,211,68,9,166,101,184,161,107,196,205,75,34,37,192,179,89,116,96,91,144,26,22,117,20,183,210,7,36,94,108,35,87,151,50,28,215,78,130,81,40,27,169,55,62,102,112,155,133,229,162,135,83,157,74,39,207,127,147,67,49,118,71,140,72,1,63,32,163,178,43,31,199,98,42,160,113,73,209,218,206,86,70,126,152,122,51,177,226,69,23,159,208,189,16,185,60,3,138,137,15,30,220,176,17,47,225,13,48,111,134,19,227,125,46,214,165,194,97,8,120,110,14,201,10,191,114,119,195,193,84,29,174,198,200,65,154,164,197,143,11,76,57,95,79,167,85,188,181,136,173,124,131,148,182,61,123,25,80,132,149,115,2,52,221,59,139,58,213,93,168,172,204,45,212,104,230,82,158,180,121,77,222,41,128,106,141,219,24,66,190,99,202,105,216,100,53,92,175,54,18,56